2
150 2
74
20 1 5
21 1 2
22 1 2
23 1 3
24 1 2
25 1 3
26 1 2
27 1 3
28 1 1
29 1 1
30 1 4
31 1 5
32 1 5
33 1 6
34 1 2
35 1 1
36 1 2
38 1 6
39 1 4
40 1 2
41 1 1
42 1 4
43 1 3
44 1 4
45 1 4
46 1 4
47 1 1
48 1 7
49 1 1
50 1 2
51 1 1
52 1 3
53 1 1
55 1 2
56 1 1
57 1 6
58 1 3
59 1 1
60 1 1
62 1 1
63 1 1
64 1 4
65 1 4
66 1 3
67 1 2
68 1 4
69 1 3
70 1 3
71 1 3
72 1 3
73 1 4
74 1 1
76 1 2
77 1 2
78 1 1
80 1 4
81 1 1
82 1 4
83 1 3
85 1 2
86 1 4
87 1 4
88 1 3
89 1 5
90 1 2
91 1 1
92 1 1
93 1 2
94 1 2
96 1 1
97 1 3
98 1 2
99 1 1
100 1 3
